
Welcome to IBM(R) ILOG(R) CPLEX(R) Interactive Optimizer 22.1.1.0
  with Simplex, Mixed Integer & Barrier Optimizers
5725-A06 5725-A29 5724-Y48 5724-Y49 5724-Y54 5724-Y55 5655-Y21
Copyright IBM Corp. 1988, 2022.  All Rights Reserved.

Type 'help' for a list of available commands.
Type 'help' followed by a command name for more
information on commands.

CPLEX> Selected objective sense:  MINIMIZE
Selected objective  name:  00000000
Selected RHS        name:  RHS1
Selected bound      name:  BOUND
Problem 'ee.mps' read.
Read time = 0.02 sec. (3.14 ticks)
CPLEX> New value for time limit in seconds: 7200
CPLEX> New value for parallel optimization mode: -1
CPLEX> New value for default parallel thread count: 40
CPLEX> New value for mixed integer optimality gap tolerance: 1e-13
CPLEX> Version identifier: 22.1.1.0 | 2022-11-28 | 9160aff4d
CPXPARAM_Threads                                 40
CPXPARAM_Parallel                                -1
CPXPARAM_TimeLimit                               7200
CPXPARAM_MIP_Tolerances_MIPGap                   1e-13
Found incumbent of value 0.000000 after 0.00 sec. (0.31 ticks)
Tried aggregator 2 times.
MIP Presolve eliminated 517 rows and 3608 columns.
MIP Presolve modified 5664 coefficients.
Aggregator did 785 substitutions.
Reduced MIP has 3215 rows, 6810 columns, and 25107 nonzeros.
Reduced MIP has 6810 binaries, 0 generals, 0 SOSs, and 0 indicators.
Presolve time = 0.06 sec. (67.17 ticks)
Probing time = 0.03 sec. (5.10 ticks)
Tried aggregator 1 time.
Detecting symmetries...
Reduced MIP has 3215 rows, 6810 columns, and 25107 nonzeros.
Reduced MIP has 6810 binaries, 0 generals, 0 SOSs, and 0 indicators.
Presolve time = 0.03 sec. (19.10 ticks)
Probing time = 0.02 sec. (4.93 ticks)
Clique table members: 16290.
MIP emphasis: balance optimality and feasibility.
MIP search method: dynamic search.
Parallel mode: opportunistic, using up to 40 threads.
Root relaxation solution time = 0.08 sec. (72.16 ticks)

        Nodes                                         Cuts/
   Node  Left     Objective  IInf  Best Integer    Best Bound    ItCnt     Gap

*     0+    0                            0.0000  -1.31000e+13              --- 
*     0+    0                      -6.48000e+12  -1.31000e+13           102.16%
      0     0  -1.30900e+13    59  -6.48000e+12  -1.30900e+13     1869  102.01%
*     0+    0                      -1.30900e+13  -1.30900e+13             0.00%
      0     0  -1.30900e+13   119  -1.30900e+13      Cuts: 59     2399    0.00%
      0     0  -1.30900e+13   149  -1.30900e+13      Cuts: 53     2627    0.00%
*     0+    0                      -1.30900e+13  -1.30900e+13             0.00%

Repeating presolve.
Tried aggregator 2 times.
MIP Presolve eliminated 950 rows and 2525 columns.
MIP Presolve added 8 rows and 0 columns.
MIP Presolve modified 37 coefficients.
Aggregator did 499 substitutions.
Reduced MIP has 1774 rows, 3722 columns, and 13361 nonzeros.
Reduced MIP has 3722 binaries, 0 generals, 0 SOSs, and 0 indicators.
Presolve time = 0.05 sec. (46.23 ticks)
Probing fixed 9 vars, tightened 0 bounds.
Probing time = 0.05 sec. (16.07 ticks)
Tried aggregator 1 time.
MIP Presolve eliminated 32 rows and 36 columns.
Reduced MIP has 1742 rows, 3681 columns, and 13229 nonzeros.
Reduced MIP has 3681 binaries, 0 generals, 0 SOSs, and 0 indicators.
Presolve time = 0.01 sec. (11.56 ticks)
Probing time = 0.03 sec. (6.52 ticks)
Tried aggregator 1 time.
Detecting symmetries...
MIP Presolve eliminated 2 rows and 2 columns.
Reduced MIP has 1740 rows, 3679 columns, and 13219 nonzeros.
Reduced MIP has 3679 binaries, 0 generals, 0 SOSs, and 0 indicators.
Presolve time = 0.02 sec. (14.17 ticks)
Represolve time = 0.19 sec. (112.06 ticks)
Probing time = 0.03 sec. (6.57 ticks)
Clique table members: 8700.
MIP emphasis: balance optimality and feasibility.
MIP search method: dynamic search.
Parallel mode: opportunistic, using up to 40 threads.
Root relaxation solution time = 0.07 sec. (49.93 ticks)

        Nodes                                         Cuts/
   Node  Left     Objective  IInf  Best Integer    Best Bound    ItCnt     Gap

*     0+    0                      -1.30900e+13  -1.30900e+13             0.00%
      0     0  -1.30900e+13    63  -1.30900e+13  -1.30900e+13     4654    0.00%
      0     0  -1.30900e+13   127  -1.30900e+13      Cuts: 56     4876    0.00%
      0     0  -1.30900e+13   179  -1.30900e+13      Cuts: 68     5003    0.00%
*     0+    0                      -1.30900e+13  -1.30900e+13             0.00%
      0     2  -1.30900e+13   179  -1.30900e+13  -1.30900e+13     5003    0.00%
Elapsed time = 2.04 sec. (1409.08 ticks, tree = 0.02 MB, solutions = 6)
*   678    86      integral     0  -1.30900e+13  -1.30900e+13    31257    0.00%
    939   102  -1.30900e+13   120  -1.30900e+13  -1.30900e+13    40081    0.00%
   2538   193        cutoff        -1.30900e+13  -1.30900e+13    58379    0.00%
   4715   133        cutoff        -1.30900e+13  -1.30900e+13   249888    0.00%
   7050   115  -1.30900e+13   135  -1.30900e+13  -1.30900e+13   224280    0.00%
   8885    94  -1.30900e+13   104  -1.30900e+13  -1.30900e+13   337364    0.00%
  10047   154        cutoff        -1.30900e+13  -1.30900e+13   317979    0.00%
  10878    74  -1.30900e+13    23  -1.30900e+13  -1.30900e+13   404422    0.00%

GUB cover cuts applied:  5
Clique cuts applied:  19
Cover cuts applied:  470
Flow cuts applied:  4
Mixed integer rounding cuts applied:  5
Zero-half cuts applied:  20
Lift and project cuts applied:  14
Gomory fractional cuts applied:  19

Root node processing (before b&c):
  Real time             =    1.64 sec. (1409.18 ticks)
Parallel b&c, 40 threads:
  Real time             =    3.12 sec. (1897.17 ticks)
  Sync time (average)   =    0.73 sec.
  Wait time (average)   =    0.00 sec.
                          ------------
Total (root+branch&cut) =    4.76 sec. (3306.35 ticks)

Solution pool: 17 solutions saved.

MIP - Integer optimal solution:  Objective = -1.3089999889e+13
Solution time =    4.83 sec.  Iterations = 520179  Nodes = 11096
Deterministic time = 3306.39 ticks  (683.93 ticks/sec)

CPLEX> Solution 'p18' written to file 'ee.sol'.
CPLEX> 